NAME : L73
COMMENT : 16212.74
TYPE : CVRP
DIMENSION : 561
MAXVEHICLES : 8
EDGE_WEIGHT_TYPE : EUC_2D
CAPACITY : 1000
DISTANCE : 2000
SERVICE_TIME : 10
TOTALPROFITS : 11250
NODE_COORD_SECTION
1 0.0000 0.0000
2 30.0000 0.0000
3 29.6307 4.6930
4 28.5317 9.2705
5 26.7302 13.6197
6 24.2705 17.6336
7 21.2132 21.2132
8 17.6336 24.2705
9 13.6197 26.7302
10 9.2705 28.5317
11 4.6930 29.6307
12 0.0000 30.0000
13 -4.6930 29.6307
14 -9.2705 28.5317
15 -13.6197 26.7302
16 -17.6336 24.2705
17 -21.2132 21.2132
18 -24.2705 17.6336
19 -26.7302 13.6197
20 -28.5317 9.2705
21 -29.6307 4.6930
22 -30.0000 0.0000
23 -29.6307 -4.6930
24 -28.5317 -9.2705
25 -26.7302 -13.6197
26 -24.2705 -17.6336
27 -21.2132 -21.2132
28 -17.6336 -24.2705
29 -13.6197 -26.7302
30 -9.2705 -28.5317
31 -4.6930 -29.6307
32 -0.0000 -30.0000
33 4.6930 -29.6307
34 9.2705 -28.5317
35 13.6197 -26.7302
36 17.6336 -24.2705
37 21.2132 -21.2132
38 24.2705 -17.6336
39 26.7302 -13.6197
40 28.5317 -9.2705
41 29.6307 -4.6930
42 60.0000 0.0000
43 59.2613 9.3861
44 57.0634 18.5410
45 53.4604 27.2394
46 48.5410 35.2671
47 42.4264 42.4264
48 35.2671 48.5410
49 27.2394 53.4604
50 18.5410 57.0634
51 9.3861 59.2613
52 0.0000 60.0000
53 -9.3861 59.2613
54 -18.5410 57.0634
55 -27.2394 53.4604
56 -35.2671 48.5410
57 -42.4264 42.4264
58 -48.5410 35.2671
59 -53.4604 27.2394
60 -57.0634 18.5410
61 -59.2613 9.3861
62 -60.0000 0.0000
63 -59.2613 -9.3861
64 -57.0634 -18.5410
65 -53.4604 -27.2394
66 -48.5410 -35.2671
67 -42.4264 -42.4264
68 -35.2671 -48.5410
69 -27.2394 -53.4604
70 -18.5410 -57.0634
71 -9.3861 -59.2613
72 -0.0000 -60.0000
73 9.3861 -59.2613
74 18.5410 -57.0634
75 27.2394 -53.4604
76 35.2671 -48.5410
77 42.4264 -42.4264
78 48.5410 -35.2671
79 53.4604 -27.2394
80 57.0634 -18.5410
81 59.2613 -9.3861
82 90.0000 0.0000
83 88.8920 14.0791
84 85.5951 27.8115
85 80.1906 40.8591
86 72.8115 52.9007
87 63.6396 63.6396
88 52.9007 72.8115
89 40.8591 80.1906
90 27.8115 85.5951
91 14.0791 88.8920
92 0.0000 90.0000
93 -14.0791 88.8920
94 -27.8115 85.5951
95 -40.8591 80.1906
96 -52.9007 72.8115
97 -63.6396 63.6396
98 -72.8115 52.9007
99 -80.1906 40.8591
100 -85.5951 27.8115
101 -88.8920 14.0791
102 -90.0000 0.0000
103 -88.8920 -14.0791
104 -85.5951 -27.8115
105 -80.1906 -40.8591
106 -72.8115 -52.9007
107 -63.6396 -63.6396
108 -52.9007 -72.8115
109 -40.8591 -80.1906
110 -27.8115 -85.5951
111 -14.0791 -88.8920
112 -0.0000 -90.0000
113 14.0791 -88.8920
114 27.8115 -85.5951
115 40.8591 -80.1906
116 52.9007 -72.8115
117 63.6396 -63.6396
118 72.8115 -52.9007
119 80.1906 -40.8591
120 85.5951 -27.8115
121 88.8920 -14.0791
122 120.0000 0.0000
123 118.5226 18.7721
124 114.1268 37.0820
125 106.9208 54.4789
126 97.0820 70.5342
127 84.8528 84.8528
128 70.5342 97.0820
129 54.4789 106.9208
130 37.0820 114.1268
131 18.7721 118.5226
132 0.0000 120.0000
133 -18.7721 118.5226
134 -37.0820 114.1268
135 -54.4789 106.9208
136 -70.5342 97.0820
137 -84.8528 84.8528
138 -97.0820 70.5342
139 -106.9208 54.4789
140 -114.1268 37.0820
141 -118.5226 18.7721
142 -120.0000 0.0000
143 -118.5226 -18.7721
144 -114.1268 -37.0820
145 -106.9208 -54.4789
146 -97.0820 -70.5342
147 -84.8528 -84.8528
148 -70.5342 -97.0820
149 -54.4789 -106.9208
150 -37.0820 -114.1268
151 -18.7721 -118.5226
152 -0.0000 -120.0000
153 18.7721 -118.5226
154 37.0820 -114.1268
155 54.4789 -106.9208
156 70.5342 -97.0820
157 84.8528 -84.8528
158 97.0820 -70.5342
159 106.9208 -54.4789
160 114.1268 -37.0820
161 118.5226 -18.7721
162 150.0000 0.0000
163 148.1533 23.4652
164 142.6585 46.3525
165 133.6510 68.0986
166 121.3525 88.1678
167 106.0660 106.0660
168 88.1678 121.3525
169 68.0986 133.6510
170 46.3525 142.6585
171 23.4652 148.1533
172 0.0000 150.0000
173 -23.4652 148.1533
174 -46.3525 142.6585
175 -68.0986 133.6510
176 -88.1678 121.3525
177 -106.0660 106.0660
178 -121.3525 88.1678
179 -133.6510 68.0986
180 -142.6585 46.3525
181 -148.1533 23.4652
182 -150.0000 0.0000
183 -148.1533 -23.4652
184 -142.6585 -46.3525
185 -133.6510 -68.0986
186 -121.3525 -88.1678
187 -106.0660 -106.0660
188 -88.1678 -121.3525
189 -68.0986 -133.6510
190 -46.3525 -142.6585
191 -23.4652 -148.1533
192 -0.0000 -150.0000
193 23.4652 -148.1533
194 46.3525 -142.6585
195 68.0986 -133.6510
196 88.1678 -121.3525
197 106.0660 -106.0660
198 121.3525 -88.1678
199 133.6510 -68.0986
200 142.6585 -46.3525
201 148.1533 -23.4652
202 180.0000 0.0000
203 177.7839 28.1582
204 171.1902 55.6231
205 160.3812 81.7183
206 145.6231 105.8013
207 127.2792 127.2792
208 105.8013 145.6231
209 81.7183 160.3812
210 55.6231 171.1902
211 28.1582 177.7839
212 0.0000 180.0000
213 -28.1582 177.7839
214 -55.6231 171.1902
215 -81.7183 160.3812
216 -105.8013 145.6231
217 -127.2792 127.2792
218 -145.6231 105.8013
219 -160.3812 81.7183
220 -171.1902 55.6231
221 -177.7839 28.1582
222 -180.0000 0.0000
223 -177.7839 -28.1582
224 -171.1902 -55.6231
225 -160.3812 -81.7183
226 -145.6231 -105.8013
227 -127.2792 -127.2792
228 -105.8013 -145.6231
229 -81.7183 -160.3812
230 -55.6231 -171.1902
231 -28.1582 -177.7839
232 -0.0000 -180.0000
233 28.1582 -177.7839
234 55.6231 -171.1902
235 81.7183 -160.3812
236 105.8013 -145.6231
237 127.2792 -127.2792
238 145.6231 -105.8013
239 160.3812 -81.7183
240 171.1902 -55.6231
241 177.7839 -28.1582
242 210.0000 0.0000
243 207.4146 32.8512
244 199.7219 64.8936
245 187.1114 95.3380
246 169.8936 123.4349
247 148.4924 148.4924
248 123.4349 169.8936
249 95.3380 187.1114
250 64.8936 199.7219
251 32.8512 207.4146
252 0.0000 210.0000
253 -32.8512 207.4146
254 -64.8936 199.7219
255 -95.3380 187.1114
256 -123.4349 169.8936
257 -148.4924 148.4924
258 -169.8936 123.4349
259 -187.1114 95.3380
260 -199.7219 64.8936
261 -207.4146 32.8512
262 -210.0000 0.0000
263 -207.4146 -32.8512
264 -199.7219 -64.8936
265 -187.1114 -95.3380
266 -169.8936 -123.4349
267 -148.4924 -148.4924
268 -123.4349 -169.8936
269 -95.3380 -187.1114
270 -64.8936 -199.7219
271 -32.8512 -207.4146
272 -0.0000 -210.0000
273 32.8512 -207.4146
274 64.8936 -199.7219
275 95.3380 -187.1114
276 123.4349 -169.8936
277 148.4924 -148.4924
278 169.8936 -123.4349
279 187.1114 -95.3380
280 199.7219 -64.8936
281 207.4146 -32.8512
282 240.0000 0.0000
283 237.0452 37.5443
284 228.2536 74.1641
285 213.8416 108.9577
286 194.1641 141.0685
287 169.7056 169.7056
288 141.0685 194.1641
289 108.9577 213.8416
290 74.1641 228.2536
291 37.5443 237.0452
292 0.0000 240.0000
293 -37.5443 237.0452
294 -74.1641 228.2536
295 -108.9577 213.8416
296 -141.0685 194.1641
297 -169.7056 169.7056
298 -194.1641 141.0685
299 -213.8416 108.9577
300 -228.2536 74.1641
301 -237.0452 37.5443
302 -240.0000 0.0000
303 -237.0452 -37.5443
304 -228.2536 -74.1641
305 -213.8416 -108.9577
306 -194.1641 -141.0685
307 -169.7056 -169.7056
308 -141.0685 -194.1641
309 -108.9577 -213.8416
310 -74.1641 -228.2536
311 -37.5443 -237.0452
312 -0.0000 -240.0000
313 37.5443 -237.0452
314 74.1641 -228.2536
315 108.9577 -213.8416
316 141.0685 -194.1641
317 169.7056 -169.7056
318 194.1641 -141.0685
319 213.8416 -108.9577
320 228.2536 -74.1641
321 237.0452 -37.5443
322 270.0000 0.0000
323 266.6759 42.2373
324 256.7853 83.4346
325 240.5718 122.5774
326 218.4346 158.7020
327 190.9188 190.9188
328 158.7020 218.4346
329 122.5774 240.5718
330 83.4346 256.7853
331 42.2373 266.6759
332 0.0000 270.0000
333 -42.2373 266.6759
334 -83.4346 256.7853
335 -122.5774 240.5718
336 -158.7020 218.4346
337 -190.9188 190.9188
338 -218.4346 158.7020
339 -240.5718 122.5774
340 -256.7853 83.4346
341 -266.6759 42.2373
342 -270.0000 0.0000
343 -266.6759 -42.2373
344 -256.7853 -83.4346
345 -240.5718 -122.5774
346 -218.4346 -158.7020
347 -190.9188 -190.9188
348 -158.7020 -218.4346
349 -122.5774 -240.5718
350 -83.4346 -256.7853
351 -42.2373 -266.6759
352 -0.0000 -270.0000
353 42.2373 -266.6759
354 83.4346 -256.7853
355 122.5774 -240.5718
356 158.7020 -218.4346
357 190.9188 -190.9188
358 218.4346 -158.7020
359 240.5718 -122.5774
360 256.7853 -83.4346
361 266.6759 -42.2373
362 300.0000 0.0000
363 296.3065 46.9303
364 285.3170 92.7051
365 267.3020 136.1971
366 242.7051 176.3356
367 212.1320 212.1320
368 176.3356 242.7051
369 136.1971 267.3020
370 92.7051 285.3170
371 46.9303 296.3065
372 0.0000 300.0000
373 -46.9303 296.3065
374 -92.7051 285.3170
375 -136.1971 267.3020
376 -176.3356 242.7051
377 -212.1320 212.1320
378 -242.7051 176.3356
379 -267.3020 136.1971
380 -285.3170 92.7051
381 -296.3065 46.9303
382 -300.0000 0.0000
383 -296.3065 -46.9303
384 -285.3170 -92.7051
385 -267.3020 -136.1971
386 -242.7051 -176.3356
387 -212.1320 -212.1320
388 -176.3356 -242.7051
389 -136.1971 -267.3020
390 -92.7051 -285.3170
391 -46.9303 -296.3065
392 -0.0000 -300.0000
393 46.9303 -296.3065
394 92.7051 -285.3170
395 136.1971 -267.3020
396 176.3356 -242.7051
397 212.1320 -212.1320
398 242.7051 -176.3356
399 267.3020 -136.1971
400 285.3170 -92.7051
401 296.3065 -46.9303
402 330.0000 0.0000
403 325.9372 51.6234
404 313.8487 101.9756
405 294.0322 149.8169
406 266.9756 193.9691
407 233.3452 233.3452
408 193.9691 266.9756
409 149.8169 294.0322
410 101.9756 313.8487
411 51.6234 325.9372
412 0.0000 330.0000
413 -51.6234 325.9372
414 -101.9756 313.8487
415 -149.8169 294.0322
416 -193.9691 266.9756
417 -233.3452 233.3452
418 -266.9756 193.9691
419 -294.0322 149.8169
420 -313.8487 101.9756
421 -325.9372 51.6234
422 -330.0000 0.0000
423 -325.9372 -51.6234
424 -313.8487 -101.9756
425 -294.0322 -149.8169
426 -266.9756 -193.9691
427 -233.3452 -233.3452
428 -193.9691 -266.9756
429 -149.8169 -294.0322
430 -101.9756 -313.8487
431 -51.6234 -325.9372
432 -0.0000 -330.0000
433 51.6234 -325.9372
434 101.9756 -313.8487
435 149.8169 -294.0322
436 193.9691 -266.9756
437 233.3452 -233.3452
438 266.9756 -193.9691
439 294.0322 -149.8169
440 313.8487 -101.9756
441 325.9372 -51.6234
442 360.0000 0.0000
443 355.5678 56.3164
444 342.3803 111.2461
445 320.7623 163.4366
446 291.2461 211.6027
447 254.5584 254.5584
448 211.6027 291.2461
449 163.4366 320.7623
450 111.2461 342.3803
451 56.3164 355.5678
452 0.0000 360.0000
453 -56.3164 355.5678
454 -111.2461 342.3803
455 -163.4366 320.7623
456 -211.6027 291.2461
457 -254.5584 254.5584
458 -291.2461 211.6027
459 -320.7623 163.4366
460 -342.3803 111.2461
461 -355.5678 56.3164
462 -360.0000 0.0000
463 -355.5678 -56.3164
464 -342.3803 -111.2461
465 -320.7623 -163.4366
466 -291.2461 -211.6027
467 -254.5584 -254.5584
468 -211.6027 -291.2461
469 -163.4366 -320.7623
470 -111.2461 -342.3803
471 -56.3164 -355.5678
472 -0.0000 -360.0000
473 56.3164 -355.5678
474 111.2461 -342.3803
475 163.4366 -320.7623
476 211.6027 -291.2461
477 254.5584 -254.5584
478 291.2461 -211.6027
479 320.7623 -163.4366
480 342.3803 -111.2461
481 355.5678 -56.3164
482 390.0000 0.0000
483 385.1985 61.0094
484 370.9120 120.5166
485 347.4925 177.0563
486 315.5166 229.2362
487 275.7716 275.7716
488 229.2362 315.5166
489 177.0563 347.4925
490 120.5166 370.9120
491 61.0094 385.1985
492 0.0000 390.0000
493 -61.0094 385.1985
494 -120.5166 370.9120
495 -177.0563 347.4925
496 -229.2362 315.5166
497 -275.7716 275.7716
498 -315.5166 229.2362
499 -347.4925 177.0563
500 -370.9120 120.5166
501 -385.1985 61.0094
502 -390.0000 0.0000
503 -385.1985 -61.0094
504 -370.9120 -120.5166
505 -347.4925 -177.0563
506 -315.5166 -229.2362
507 -275.7716 -275.7716
508 -229.2362 -315.5166
509 -177.0563 -347.4925
510 -120.5166 -370.9120
511 -61.0094 -385.1985
512 -0.0000 -390.0000
513 61.0094 -385.1985
514 120.5166 -370.9120
515 177.0563 -347.4925
516 229.2362 -315.5166
517 275.7716 -275.7716
518 315.5166 -229.2362
519 347.4925 -177.0563
520 370.9120 -120.5166
521 385.1985 -61.0094
522 420.0000 0.0000
523 414.8291 65.7025
524 399.4437 129.7871
525 374.2227 190.6760
526 339.7871 246.8698
527 296.9848 296.9848
528 246.8698 339.7871
529 190.6760 374.2227
530 129.7871 399.4437
531 65.7025 414.8291
532 0.0000 420.0000
533 -65.7025 414.8291
534 -129.7871 399.4437
535 -190.6760 374.2227
536 -246.8698 339.7871
537 -296.9848 296.9848
538 -339.7871 246.8698
539 -374.2227 190.6760
540 -399.4437 129.7871
541 -414.8291 65.7025
542 -420.0000 0.0000
543 -414.8291 -65.7025
544 -399.4437 -129.7871
545 -374.2227 -190.6760
546 -339.7871 -246.8698
547 -296.9848 -296.9848
548 -246.8698 -339.7871
549 -190.6760 -374.2227
550 -129.7871 -399.4437
551 -65.7025 -414.8291
552 -0.0000 -420.0000
553 65.7025 -414.8291
554 129.7871 -399.4437
555 190.6760 -374.2227
556 246.8698 -339.7871
557 296.9848 -296.9848
558 339.7871 -246.8698
559 374.2227 -190.6760
560 399.4437 -129.7871
561 414.8291 -65.7025
DEMAND&PROFITS_SECTION
1 0 0
2 10 14
3 30 39
4 30 39
5 10 6
6 10 6
7 30 36
8 30 21
9 10 8
10 10 6
11 30 29
12 30 36
13 10 9
14 10 7
15 30 42
16 30 39
17 10 12
18 10 5
19 30 25
20 30 35
21 10 7
22 10 14
23 30 24
24 30 30
25 10 8
26 10 9
27 30 41
28 30 34
29 10 9
30 10 12
31 30 16
32 30 27
33 10 12
34 10 12
35 30 24
36 30 21
37 10 12
38 10 12
39 30 42
40 30 17
41 10 9
42 10 8
43 30 37
44 30 38
45 10 11
46 10 10
47 30 34
48 30 45
49 10 9
50 10 8
51 30 25
52 30 33
53 10 9
54 10 14
55 30 21
56 30 28
57 10 14
58 10 15
59 30 33
60 30 16
61 10 14
62 10 11
63 30 25
64 30 29
65 10 8
66 10 15
67 30 32
68 30 35
69 10 13
70 10 10
71 30 41
72 30 20
73 10 6
74 10 12
75 30 24
76 30 45
77 10 11
78 10 6
79 30 45
80 30 18
81 10 8
82 10 9
83 30 43
84 30 16
85 10 8
86 10 10
87 30 40
88 30 25
89 10 9
90 10 11
91 30 15
92 30 44
93 10 10
94 10 12
95 30 34
96 30 17
97 10 8
98 10 11
99 30 40
100 30 21
101 10 9
102 10 13
103 30 36
104 30 43
105 10 9
106 10 9
107 30 24
108 30 36
109 10 14
110 10 14
111 30 43
112 30 17
113 10 7
114 10 7
115 30 34
116 30 30
117 10 6
118 10 7
119 30 43
120 30 24
121 10 5
122 10 8
123 30 22
124 30 25
125 10 13
126 10 15
127 30 42
128 30 30
129 10 10
130 10 10
131 30 30
132 30 40
133 10 7
134 10 9
135 30 28
136 30 44
137 10 13
138 10 9
139 30 18
140 30 22
141 10 8
142 10 5
143 30 44
144 30 19
145 10 13
146 10 6
147 30 41
148 30 34
149 10 13
150 10 12
151 30 29
152 30 41
153 10 12
154 10 14
155 30 28
156 30 21
157 10 9
158 10 9
159 30 42
160 30 28
161 10 11
162 10 5
163 30 23
164 30 24
165 10 6
166 10 13
167 30 21
168 30 30
169 10 11
170 10 14
171 30 37
172 30 19
173 10 13
174 10 11
175 30 22
176 30 33
177 10 9
178 10 12
179 30 19
180 30 33
181 10 10
182 10 7
183 30 44
184 30 18
185 10 14
186 10 5
187 30 35
188 30 15
189 10 14
190 10 7
191 30 17
192 30 18
193 10 6
194 10 6
195 30 20
196 30 31
197 10 5
198 10 12
199 30 16
200 30 22
201 10 8
202 10 11
203 30 21
204 30 28
205 10 12
206 10 5
207 30 22
208 30 36
209 10 5
210 10 8
211 30 42
212 30 22
213 10 10
214 10 11
215 30 20
216 30 33
217 10 11
218 10 11
219 30 38
220 30 21
221 10 8
222 10 7
223 30 23
224 30 21
225 10 14
226 10 6
227 30 43
228 30 31
229 10 5
230 10 7
231 30 27
232 30 24
233 10 10
234 10 7
235 30 35
236 30 30
237 10 7
238 10 10
239 30 23
240 30 25
241 10 12
242 10 9
243 30 25
244 30 32
245 10 14
246 10 9
247 30 40
248 30 37
249 10 7
250 10 6
251 30 44
252 30 20
253 10 10
254 10 7
255 30 42
256 30 39
257 10 14
258 10 12
259 30 18
260 30 28
261 10 9
262 10 5
263 30 24
264 30 40
265 10 15
266 10 15
267 30 41
268 30 19
269 10 9
270 10 11
271 30 19
272 30 28
273 10 9
274 10 12
275 30 18
276 30 16
277 10 14
278 10 6
279 30 38
280 30 23
281 10 10
282 10 10
283 30 27
284 30 21
285 10 10
286 10 10
287 30 39
288 30 39
289 10 7
290 10 7
291 30 38
292 30 18
293 10 14
294 10 6
295 30 23
296 30 27
297 10 5
298 10 12
299 30 27
300 30 42
301 10 14
302 10 10
303 30 21
304 30 41
305 10 11
306 10 14
307 30 42
308 30 37
309 10 6
310 10 10
311 30 36
312 30 39
313 10 14
314 10 8
315 30 31
316 30 41
317 10 15
318 10 14
319 30 32
320 30 30
321 10 8
322 10 11
323 30 34
324 30 18
325 10 13
326 10 7
327 30 43
328 30 41
329 10 10
330 10 6
331 30 25
332 30 31
333 10 13
334 10 8
335 30 21
336 30 33
337 10 9
338 10 14
339 30 36
340 30 25
341 10 11
342 10 6
343 30 17
344 30 17
345 10 7
346 10 7
347 30 28
348 30 21
349 10 7
350 10 13
351 30 39
352 30 26
353 10 12
354 10 11
355 30 29
356 30 38
357 10 11
358 10 15
359 30 24
360 30 26
361 10 11
362 10 13
363 30 44
364 30 30
365 10 10
366 10 12
367 30 37
368 30 18
369 10 5
370 10 14
371 30 31
372 30 41
373 10 7
374 10 10
375 30 42
376 30 28
377 10 8
378 10 8
379 30 30
380 30 26
381 10 12
382 10 8
383 30 38
384 30 45
385 10 6
386 10 13
387 30 34
388 30 44
389 10 8
390 10 11
391 30 38
392 30 24
393 10 11
394 10 6
395 30 21
396 30 26
397 10 8
398 10 10
399 30 38
400 30 43
401 10 11
402 10 15
403 30 38
404 30 15
405 10 8
406 10 9
407 30 18
408 30 21
409 10 5
410 10 9
411 30 44
412 30 43
413 10 14
414 10 6
415 30 30
416 30 39
417 10 9
418 10 7
419 30 42
420 30 42
421 10 14
422 10 8
423 30 32
424 30 37
425 10 11
426 10 11
427 30 37
428 30 31
429 10 9
430 10 11
431 30 20
432 30 43
433 10 15
434 10 9
435 30 25
436 30 36
437 10 14
438 10 13
439 30 25
440 30 32
441 10 11
442 10 10
443 30 42
444 30 34
445 10 9
446 10 11
447 30 44
448 30 41
449 10 7
450 10 10
451 30 28
452 30 18
453 10 7
454 10 8
455 30 19
456 30 29
457 10 11
458 10 14
459 30 43
460 30 17
461 10 11
462 10 8
463 30 44
464 30 32
465 10 8
466 10 10
467 30 22
468 30 43
469 10 6
470 10 13
471 30 38
472 30 36
473 10 5
474 10 6
475 30 23
476 30 17
477 10 7
478 10 11
479 30 29
480 30 16
481 10 8
482 10 9
483 30 19
484 30 18
485 10 15
486 10 10
487 30 30
488 30 17
489 10 11
490 10 8
491 30 39
492 30 19
493 10 8
494 10 15
495 30 29
496 30 19
497 10 11
498 10 8
499 30 37
500 30 31
501 10 12
502 10 6
503 30 37
504 30 38
505 10 13
506 10 8
507 30 40
508 30 42
509 10 7
510 10 9
511 30 28
512 30 31
513 10 7
514 10 8
515 30 29
516 30 32
517 10 8
518 10 12
519 30 45
520 30 38
521 10 11
522 10 9
523 30 34
524 30 41
525 10 5
526 10 12
527 30 26
528 30 25
529 10 13
530 10 10
531 30 40
532 30 21
533 10 7
534 10 7
535 30 20
536 30 21
537 10 6
538 10 12
539 30 16
540 30 25
541 10 14
542 10 8
543 30 28
544 30 36
545 10 6
546 10 14
547 30 25
548 30 40
549 10 9
550 10 6
551 30 23
552 30 38
553 10 11
554 10 10
555 30 34
556 30 30
557 10 7
558 10 7
559 30 33
560 30 32
561 10 13
DEPOT_SECTION
1
-1
EOF
